data;
param n:=100;
param w:=1 96 2 365 3 -322 4 319 5 25 6 13 7 -217 8 -213 9 306 10 -496 11 -274 12 429 13 222 14 363 15 -495 16 468 17 234 18 367 19 -208 20 -491 21 464 22 101 23 83 24 -180 25 -53 26 478 27 -511 28 -326 29 110 30 371 31 472 32 304 33 -23 34 439 35 -266 36 -219 37 -498 38 64 39 -1 40 13 41 -79 42 -462 43 57 44 -240 45 117 46 300 47 209 48 -225 49 -167 50 -191 51 -174 52 166 53 -181 54 -175 55 209 56 399 57 162 58 -314 59 220 60 -340 61 -368 62 -417 63 -232 64 -94 65 -204 66 159 67 50 68 367 69 1 70 -248 71 252 72 304 73 59 74 -295 75 -237 76 125 77 -402 78 268 79 299 80 -412 81 -164 82 -334 83 -460 84 381 85 318 86 -229 87 103 88 -240 89 343 90 -460 91 412 92 -343 93 15 94 -74 95 390 96 21 97 428 98 278 99 168 100 -132;
